Gurobi Optimizer version 9.1.2 build v9.1.2rc0 (linux64)
Thread count: 36 physical cores, 72 logical processors, using up to 32 threads
Optimize a model with 12 rows, 57 columns and 590 nonzeros
Model fingerprint: 0xf32eec78
Model has 47 quadratic constraints
Coefficient statistics:
  Matrix range     [2e-05, 3e+00]
  QMatrix range    [1e+00, 1e+00]
  QLMatrix range   [1e+00, 1e+00]
  Objective range  [8e-03, 7e-01]
  Bounds range     [1e+00, 1e+00]
  RHS range        [1e+00, 1e+00]
Presolve removed 9 rows and 0 columns

Continuous model is non-convex -- solving as a MIP.

Presolve removed 9 rows and 0 columns
Presolve time: 0.00s
Presolved: 189 rows, 57 columns, 443 nonzeros
Presolved model has 47 bilinear constraint(s)
Variable types: 57 continuous, 0 integer (0 binary)

Root relaxation: objective -1.743721e+00, 44 iterations, 0.00 seconds

    Nodes    |    Current Node    |     Objective Bounds      |     Work
 Expl Unexpl |  Obj  Depth IntInf | Incumbent    BestBd   Gap | It/Node Time

     0     0   -1.74372    0   38          -   -1.74372      -     -    0s
H    0     0                       0.6147548   -1.74372   384%     -    0s
     0     0   -1.64739    0    1    0.61475   -1.64739   368%     -    0s
H    0     0                      -1.6450460   -1.64739  0.14%     -    0s
     0     0     cutoff    0        -1.64505   -1.64505  0.00%     -    0s

Cutting planes:
  RLT: 25
  BQP: 3

Explored 1 nodes (76 simplex iterations) in 0.01 seconds
Thread count was 32 (of 72 available processors)

Solution count 2: -1.64505 0.614755 
No other solutions better than -1.64505

Optimal solution found (tolerance 1.00e-04)
Best objective -1.645045978473e+00, best bound -1.645045978473e+00, gap 0.0000%

User-callback calls 78, time in user-callback 0.00 sec
Gurobi Optimizer version 9.1.2 build v9.1.2rc0 (linux64)
Thread count: 36 physical cores, 72 logical processors, using up to 32 threads
Optimize a model with 60 rows, 312 columns and 16100 nonzeros
Model fingerprint: 0x9db407ed
Model has 262 quadratic constraints
Coefficient statistics:
  Matrix range     [4e-07, 7e+00]
  QMatrix range    [1e+00, 1e+00]
  QLMatrix range   [1e+00, 1e+00]
  Objective range  [3e-03, 1e+00]
  Bounds range     [1e+00, 1e+00]
  RHS range        [1e+00, 1e+00]
Presolve removed 17 rows and 0 columns

Continuous model is non-convex -- solving as a MIP.

Presolve removed 17 rows and 0 columns
Presolve time: 0.01s
Presolved: 1079 rows, 312 columns, 12823 nonzeros
Presolved model has 262 bilinear constraint(s)
Variable types: 312 continuous, 0 integer (0 binary)

Root relaxation: objective -2.081546e+01, 277 iterations, 0.01 seconds

    Nodes    |    Current Node    |     Objective Bounds      |     Work
 Expl Unexpl |  Obj  Depth IntInf | Incumbent    BestBd   Gap | It/Node Time

     0     0  -20.81546    0   75          -  -20.81546      -     -    0s
     0     0  -20.19386    0   56          -  -20.19386      -     -    0s
     0     0  -20.14897    0   56          -  -20.14897      -     -    0s
     0     0  -20.03392    0   56          -  -20.03392      -     -    0s
     0     0  -20.03330    0   53          -  -20.03330      -     -    0s
     0     0  -20.01080    0   52          -  -20.01080      -     -    0s
     0     0  -20.00069    0   52          -  -20.00069      -     -    0s
     0     0  -20.00002    0   52          -  -20.00002      -     -    0s
     0     0  -19.99872    0   52          -  -19.99872      -     -    0s
     0     0  -19.99871    0   52          -  -19.99871      -     -    0s
     0     0  -19.99754    0   53          -  -19.99754      -     -    0s
     0     0  -19.99702    0   52          -  -19.99702      -     -    0s
     0     0  -19.99536    0   53          -  -19.99536      -     -    0s
H    0     0                     -19.1437438  -19.99536  4.45%     -    0s
     0     2  -19.99536    0   53  -19.14374  -19.99536  4.45%     -    0s
* 1035   710              36     -19.1461034  -19.51824  1.94%  39.8    1s
* 1036   710              36     -19.1461547  -19.51824  1.94%  39.8    1s
* 1119   779              37     -19.1469166  -19.51824  1.94%  38.3    1s
* 1121   779              38     -19.1473293  -19.51824  1.94%  38.2    1s
* 1122   779              38     -19.1473428  -19.51824  1.94%  38.2    1s
* 1360   906              55     -19.1487427  -19.51824  1.93%  35.0    1s
* 1553  1036              56     -19.1588129  -19.51824  1.88%  33.3    1s
* 1554  1036              56     -19.1588969  -19.51824  1.88%  33.3    1s
* 2116  1355              42     -19.2172118  -19.51824  1.57%  30.4    1s
* 2117  1355              42     -19.2172124  -19.51824  1.57%  30.4    1s
* 2978  1523              47     -19.2178019  -19.43878  1.15%  29.2    2s
* 3107  1592              47     -19.2178075  -19.41258  1.01%  29.2    2s
* 3276  1665              58     -19.2204461  -19.41246  1.00%  29.1    2s
* 3277  1665              58     -19.2210917  -19.41246  1.00%  29.0    2s
* 3456  1728              58     -19.2212714  -19.41246  0.99%  28.7    2s
* 3538  1783              65     -19.2259908  -19.41246  0.97%  28.6    2s
* 3751  1777              55     -19.2315146  -19.39606  0.86%  28.4    2s
* 4104  1747              48     -19.2365681  -19.33776  0.53%  28.0    2s
* 5007  1742              42     -19.2366336  -19.30612  0.36%  27.7    2s
* 5211  1754              43     -19.2400172  -19.30612  0.34%  27.5    2s
* 5213  1754              44     -19.2401154  -19.30612  0.34%  27.5    2s
* 6169  1759              50     -19.2411995  -19.29304  0.27%  26.8    3s
* 6172  1759              51     -19.2412157  -19.29304  0.27%  26.8    3s
* 6173  1759              51     -19.2412533  -19.29304  0.27%  26.8    3s
* 6545  1742              50     -19.2429218  -19.28342  0.21%  26.3    3s
* 6546  1742              50     -19.2429219  -19.28342  0.21%  26.3    3s
* 6669  1742              45     -19.2431908  -19.28342  0.21%  26.1    3s
* 6674  1742              49     -19.2431909  -19.28342  0.21%  26.1    3s
* 6785  1659              46     -19.2431934  -19.28342  0.21%  25.9    3s
* 7592  1711              44     -19.2439833  -19.27112  0.14%  25.1    3s
* 8719  1864              48     -19.2442620  -19.26734  0.12%  23.9    4s
* 8720  1864              48     -19.2442716  -19.26734  0.12%  23.9    4s
* 8725  1864              48     -19.2442805  -19.26734  0.12%  23.9    4s
* 8777  1864              45     -19.2448154  -19.26734  0.12%  23.8    4s
* 9273  1771              41     -19.2448223  -19.26256  0.09%  23.2    4s
* 9355  1771              44     -19.2451639  -19.26256  0.09%  23.1    4s
* 9356  1771              44     -19.2451711  -19.26256  0.09%  23.1    4s
* 9417  1771              46     -19.2459138  -19.26256  0.09%  23.0    4s
* 9949  1795              42     -19.2459167  -19.25889  0.07%  22.4    4s
*10349  1814              47     -19.2460210  -19.25717  0.06%  22.0    4s
*10351  1814              48     -19.2460391  -19.25717  0.06%  22.0    4s
*10352  1814              48     -19.2460392  -19.25717  0.06%  22.0    4s
*10768  1866              47     -19.2461342  -19.25377  0.04%  21.5    4s
*10918  1866              44     -19.2461476  -19.25377  0.04%  21.3    4s
*11197  1866              50     -19.2461707  -19.25377  0.04%  21.0    4s
*11199  1866              51     -19.2461708  -19.25377  0.04%  21.0    4s
*11358  1856              43     -19.2462596  -19.25197  0.03%  20.8    4s
*11360  1856              42     -19.2462656  -19.25197  0.03%  20.8    4s
*11451  1856              46     -19.2464852  -19.25197  0.03%  20.7    4s
*12575  1852              52     -19.2465936  -19.25179  0.03%  19.6    4s
*12576  1852              52     -19.2466411  -19.25179  0.03%  19.6    4s
*12577  1852              51     -19.2467444  -19.25179  0.03%  19.6    4s
 12580  1781     cutoff   36       -19.24674  -19.25029  0.02%  19.6    5s
*13186  1781              51     -19.2470427  -19.24905  0.01%  19.1    5s
*13187  1781              51     -19.2470514  -19.24905  0.01%  19.1    5s

Cutting planes:
  RLT: 15
  PSD: 80

Explored 13312 nodes (253272 simplex iterations) in 5.02 seconds
Thread count was 32 (of 72 available processors)

Solution count 10: -19.2471 -19.247 -19.2467 ... -19.2461

Optimal solution found (tolerance 1.00e-04)
Best objective -1.924705141620e+01, best bound -1.924897110231e+01, gap 0.0100%

User-callback calls 27380, time in user-callback 0.01 sec



objective value: -19.247051416203256
objective bound: -19.24897110230649
x_opt: [0.9474554508433781, 1.0, 0.08761532420505164, 0.1520520567421233, 0.0, 0.0, 1.0, 0.0, 0.0, 0.0, 1.0, 0.0, 1.0, 1.0, 0.0, 1.0, 0.0, 1.0, 0.0, 0.0, 0.530782145218341, 0.7933287554457256, 0.0, 0.7294866719268084, 0.0, 0.5787509196883632, 0.0, 1.0, 0.0, 0.0, 1.0, 0.7096097958345366, 0.0, 0.3817511273666334, 1.0, 1.0, 0.08536134225286149, 1.0, 0.0, 0.99997706568377, 1.0, 0.0, 1.0, 0.0, 0.0, 0.0, 0.757049425442572, 0.0, 1.0, 0.04546793627834183]
GUROBI solution time: 5.022336006164551




